Li2
1.0
       24.1183719635         0.0000000000         0.0000000000
      -12.0591859818        20.8871228183         0.0000000000
        0.0000000000         0.0000000000        20.4332885742
   Li
  512
Direct
     0.041666668         0.083333336         0.062500000
     0.041666668         0.083333336         0.312500000
     0.041666668         0.083333336         0.562500000
     0.041666668         0.083333336         0.812500000
     0.041666668         0.333333343         0.062500000
     0.041666668         0.333333343         0.312500000
     0.041666668         0.333333343         0.562500000
     0.041666668         0.333333343         0.812500000
     0.041666668         0.583333313         0.062500000
     0.041666668         0.583333313         0.312500000
     0.041666668         0.583333313         0.562500000
     0.041666668         0.583333313         0.812500000
     0.041666668         0.833333313         0.062500000
     0.041666668         0.833333313         0.312500000
     0.041666668         0.833333313         0.562500000
     0.041666668         0.833333313         0.812500000
     0.291666657         0.083333336         0.062500000
     0.291666657         0.083333336         0.312500000
     0.291666657         0.083333336         0.562500000
     0.291666657         0.083333336         0.812500000
     0.291666657         0.333333343         0.062500000
     0.291666657         0.333333343         0.312500000
     0.291666657         0.333333343         0.562500000
     0.291666657         0.333333343         0.812500000
     0.291666657         0.583333313         0.062500000
     0.291666657         0.583333313         0.312500000
     0.291666657         0.583333313         0.562500000
     0.291666657         0.583333313         0.812500000
     0.291666657         0.833333313         0.062500000
     0.291666657         0.833333313         0.312500000
     0.291666657         0.833333313         0.562500000
     0.291666657         0.833333313         0.812500000
     0.541666687         0.083333336         0.062500000
     0.541666687         0.083333336         0.312500000
     0.541666687         0.083333336         0.562500000
     0.541666687         0.083333336         0.812500000
     0.541666687         0.333333343         0.062500000
     0.541666687         0.333333343         0.312500000
     0.541666687         0.333333343         0.562500000
     0.541666687         0.333333343         0.812500000
     0.541666687         0.583333313         0.062500000
     0.541666687         0.583333313         0.312500000
     0.541666687         0.583333313         0.562500000
     0.541666687         0.583333313         0.812500000
     0.541666687         0.833333313         0.062500000
     0.541666687         0.833333313         0.312500000
     0.541666687         0.833333313         0.562500000
     0.541666687         0.833333313         0.812500000
     0.791666687         0.083333336         0.062500000
     0.791666687         0.083333336         0.312500000
     0.791666687         0.083333336         0.562500000
     0.791666687         0.083333336         0.812500000
     0.791666687         0.333333343         0.062500000
     0.791666687         0.333333343         0.312500000
     0.791666687         0.333333343         0.562500000
     0.791666687         0.333333343         0.812500000
     0.791666687         0.583333313         0.062500000
     0.791666687         0.583333313         0.312500000
     0.791666687         0.583333313         0.562500000
     0.791666687         0.583333313         0.812500000
     0.791666687         0.833333313         0.062500000
     0.791666687         0.833333313         0.312500000
     0.791666687         0.833333313         0.562500000
     0.791666687         0.833333313         0.812500000
     0.041666668         0.208333343         0.062500000
     0.041666668         0.208333343         0.312500000
     0.041666668         0.208333343         0.562500000
     0.041666668         0.208333343         0.812500000
     0.041666668         0.458333343         0.062500000
     0.041666668         0.458333343         0.312500000
     0.041666668         0.458333343         0.562500000
     0.041666668         0.458333343         0.812500000
     0.041666668         0.708333373         0.062500000
     0.041666668         0.708333373         0.312500000
     0.041666668         0.708333373         0.562500000
     0.041666668         0.708333373         0.812500000
     0.041666668         0.958333373         0.062500000
     0.041666668         0.958333373         0.312500000
     0.041666668         0.958333373         0.562500000
     0.041666668         0.958333373         0.812500000
     0.291666657         0.208333343         0.062500000
     0.291666657         0.208333343         0.312500000
     0.291666657         0.208333343         0.562500000
     0.291666657         0.208333343         0.812500000
     0.291666657         0.458333343         0.062500000
     0.291666657         0.458333343         0.312500000
     0.291666657         0.458333343         0.562500000
     0.291666657         0.458333343         0.812500000
     0.291666657         0.708333373         0.062500000
     0.291666657         0.708333373         0.312500000
     0.291666657         0.708333373         0.562500000
     0.291666657         0.708333373         0.812500000
     0.291666657         0.958333373         0.062500000
     0.291666657         0.958333373         0.312500000
     0.291666657         0.958333373         0.562500000
     0.291666657         0.958333373         0.812500000
     0.541666687         0.208333343         0.062500000
     0.541666687         0.208333343         0.312500000
     0.541666687         0.208333343         0.562500000
     0.541666687         0.208333343         0.812500000
     0.541666687         0.458333343         0.062500000
     0.541666687         0.458333343         0.312500000
     0.541666687         0.458333343         0.562500000
     0.541666687         0.458333343         0.812500000
     0.541666687         0.708333373         0.062500000
     0.541666687         0.708333373         0.312500000
     0.541666687         0.708333373         0.562500000
     0.541666687         0.708333373         0.812500000
     0.541666687         0.958333373         0.062500000
     0.541666687         0.958333373         0.312500000
     0.541666687         0.958333373         0.562500000
     0.541666687         0.958333373         0.812500000
     0.791666687         0.208333343         0.062500000
     0.791666687         0.208333343         0.312500000
     0.791666687         0.208333343         0.562500000
     0.791666687         0.208333343         0.812500000
     0.791666687         0.458333343         0.062500000
     0.791666687         0.458333343         0.312500000
     0.791666687         0.458333343         0.562500000
     0.791666687         0.458333343         0.812500000
     0.791666687         0.708333373         0.062500000
     0.791666687         0.708333373         0.312500000
     0.791666687         0.708333373         0.562500000
     0.791666687         0.708333373         0.812500000
     0.791666687         0.958333373         0.062500000
     0.791666687         0.958333373         0.312500000
     0.791666687         0.958333373         0.562500000
     0.791666687         0.958333373         0.812500000
     0.166666672         0.083333336         0.062500000
     0.166666672         0.083333336         0.312500000
     0.166666672         0.083333336         0.562500000
     0.166666672         0.083333336         0.812500000
     0.166666672         0.333333343         0.062500000
     0.166666672         0.333333343         0.312500000
     0.166666672         0.333333343         0.562500000
     0.166666672         0.333333343         0.812500000
     0.166666672         0.583333313         0.062500000
     0.166666672         0.583333313         0.312500000
     0.166666672         0.583333313         0.562500000
     0.166666672         0.583333313         0.812500000
     0.166666672         0.833333313         0.062500000
     0.166666672         0.833333313         0.312500000
     0.166666672         0.833333313         0.562500000
     0.166666672         0.833333313         0.812500000
     0.416666687         0.083333336         0.062500000
     0.416666687         0.083333336         0.312500000
     0.416666687         0.083333336         0.562500000
     0.416666687         0.083333336         0.812500000
     0.416666687         0.333333343         0.062500000
     0.416666687         0.333333343         0.312500000
     0.416666687         0.333333343         0.562500000
     0.416666687         0.333333343         0.812500000
     0.416666687         0.583333313         0.062500000
     0.416666687         0.583333313         0.312500000
     0.416666687         0.583333313         0.562500000
     0.416666687         0.583333313         0.812500000
     0.416666687         0.833333313         0.062500000
     0.416666687         0.833333313         0.312500000
     0.416666687         0.833333313         0.562500000
     0.416666687         0.833333313         0.812500000
     0.666666687         0.083333336         0.062500000
     0.666666687         0.083333336         0.312500000
     0.666666687         0.083333336         0.562500000
     0.666666687         0.083333336         0.812500000
     0.666666687         0.333333343         0.062500000
     0.666666687         0.333333343         0.312500000
     0.666666687         0.333333343         0.562500000
     0.666666687         0.333333343         0.812500000
     0.666666687         0.583333313         0.062500000
     0.666666687         0.583333313         0.312500000
     0.666666687         0.583333313         0.562500000
     0.666666687         0.583333313         0.812500000
     0.666666687         0.833333313         0.062500000
     0.666666687         0.833333313         0.312500000
     0.666666687         0.833333313         0.562500000
     0.666666687         0.833333313         0.812500000
     0.916666687         0.083333336         0.062500000
     0.916666687         0.083333336         0.312500000
     0.916666687         0.083333336         0.562500000
     0.916666687         0.083333336         0.812500000
     0.916666687         0.333333343         0.062500000
     0.916666687         0.333333343         0.312500000
     0.916666687         0.333333343         0.562500000
     0.916666687         0.333333343         0.812500000
     0.916666687         0.583333313         0.062500000
     0.916666687         0.583333313         0.312500000
     0.916666687         0.583333313         0.562500000
     0.916666687         0.583333313         0.812500000
     0.916666687         0.833333313         0.062500000
     0.916666687         0.833333313         0.312500000
     0.916666687         0.833333313         0.562500000
     0.916666687         0.833333313         0.812500000
     0.166666672         0.208333343         0.062500000
     0.166666672         0.208333343         0.312500000
     0.166666672         0.208333343         0.562500000
     0.166666672         0.208333343         0.812500000
     0.166666672         0.458333343         0.062500000
     0.166666672         0.458333343         0.312500000
     0.166666672         0.458333343         0.562500000
     0.166666672         0.458333343         0.812500000
     0.166666672         0.708333373         0.062500000
     0.166666672         0.708333373         0.312500000
     0.166666672         0.708333373         0.562500000
     0.166666672         0.708333373         0.812500000
     0.166666672         0.958333373         0.062500000
     0.166666672         0.958333373         0.312500000
     0.166666672         0.958333373         0.562500000
     0.166666672         0.958333373         0.812500000
     0.416666687         0.208333343         0.062500000
     0.416666687         0.208333343         0.312500000
     0.416666687         0.208333343         0.562500000
     0.416666687         0.208333343         0.812500000
     0.416666687         0.458333343         0.062500000
     0.416666687         0.458333343         0.312500000
     0.416666687         0.458333343         0.562500000
     0.416666687         0.458333343         0.812500000
     0.416666687         0.708333373         0.062500000
     0.416666687         0.708333373         0.312500000
     0.416666687         0.708333373         0.562500000
     0.416666687         0.708333373         0.812500000
     0.416666687         0.958333373         0.062500000
     0.416666687         0.958333373         0.312500000
     0.416666687         0.958333373         0.562500000
     0.416666687         0.958333373         0.812500000
     0.666666687         0.208333343         0.062500000
     0.666666687         0.208333343         0.312500000
     0.666666687         0.208333343         0.562500000
     0.666666687         0.208333343         0.812500000
     0.666666687         0.458333343         0.062500000
     0.666666687         0.458333343         0.312500000
     0.666666687         0.458333343         0.562500000
     0.666666687         0.458333343         0.812500000
     0.666666687         0.708333373         0.062500000
     0.666666687         0.708333373         0.312500000
     0.666666687         0.708333373         0.562500000
     0.666666687         0.708333373         0.812500000
     0.666666687         0.958333373         0.062500000
     0.666666687         0.958333373         0.312500000
     0.666666687         0.958333373         0.562500000
     0.666666687         0.958333373         0.812500000
     0.916666687         0.208333343         0.062500000
     0.916666687         0.208333343         0.312500000
     0.916666687         0.208333343         0.562500000
     0.916666687         0.208333343         0.812500000
     0.916666687         0.458333343         0.062500000
     0.916666687         0.458333343         0.312500000
     0.916666687         0.458333343         0.562500000
     0.916666687         0.458333343         0.812500000
     0.916666687         0.708333373         0.062500000
     0.916666687         0.708333373         0.312500000
     0.916666687         0.708333373         0.562500000
     0.916666687         0.708333373         0.812500000
     0.916666687         0.958333373         0.062500000
     0.916666687         0.958333373         0.312500000
     0.916666687         0.958333373         0.562500000
     0.916666687         0.958333373         0.812500000
     0.083333336         0.041666668         0.187500000
     0.083333336         0.041666668         0.437500000
     0.083333336         0.041666668         0.687500000
     0.083333336         0.041666668         0.937500000
     0.083333336         0.291666657         0.187500000
     0.083333336         0.291666657         0.437500000
     0.083333336         0.291666657         0.687500000
     0.083333336         0.291666657         0.937500000
     0.083333336         0.541666687         0.187500000
     0.083333336         0.541666687         0.437500000
     0.083333336         0.541666687         0.687500000
     0.083333336         0.541666687         0.937500000
     0.083333336         0.791666687         0.187500000
     0.083333336         0.791666687         0.437500000
     0.083333336         0.791666687         0.687500000
     0.083333336         0.791666687         0.937500000
     0.333333343         0.041666668         0.187500000
     0.333333343         0.041666668         0.437500000
     0.333333343         0.041666668         0.687500000
     0.333333343         0.041666668         0.937500000
     0.333333343         0.291666657         0.187500000
     0.333333343         0.291666657         0.437500000
     0.333333343         0.291666657         0.687500000
     0.333333343         0.291666657         0.937500000
     0.333333343         0.541666687         0.187500000
     0.333333343         0.541666687         0.437500000
     0.333333343         0.541666687         0.687500000
     0.333333343         0.541666687         0.937500000
     0.333333343         0.791666687         0.187500000
     0.333333343         0.791666687         0.437500000
     0.333333343         0.791666687         0.687500000
     0.333333343         0.791666687         0.937500000
     0.583333313         0.041666668         0.187500000
     0.583333313         0.041666668         0.437500000
     0.583333313         0.041666668         0.687500000
     0.583333313         0.041666668         0.937500000
     0.583333313         0.291666657         0.187500000
     0.583333313         0.291666657         0.437500000
     0.583333313         0.291666657         0.687500000
     0.583333313         0.291666657         0.937500000
     0.583333313         0.541666687         0.187500000
     0.583333313         0.541666687         0.437500000
     0.583333313         0.541666687         0.687500000
     0.583333313         0.541666687         0.937500000
     0.583333313         0.791666687         0.187500000
     0.583333313         0.791666687         0.437500000
     0.583333313         0.791666687         0.687500000
     0.583333313         0.791666687         0.937500000
     0.833333313         0.041666668         0.187500000
     0.833333313         0.041666668         0.437500000
     0.833333313         0.041666668         0.687500000
     0.833333313         0.041666668         0.937500000
     0.833333313         0.291666657         0.187500000
     0.833333313         0.291666657         0.437500000
     0.833333313         0.291666657         0.687500000
     0.833333313         0.291666657         0.937500000
     0.833333313         0.541666687         0.187500000
     0.833333313         0.541666687         0.437500000
     0.833333313         0.541666687         0.687500000
     0.833333313         0.541666687         0.937500000
     0.833333313         0.791666687         0.187500000
     0.833333313         0.791666687         0.437500000
     0.833333313         0.791666687         0.687500000
     0.833333313         0.791666687         0.937500000
     0.083333336         0.166666672         0.187500000
     0.083333336         0.166666672         0.437500000
     0.083333336         0.166666672         0.687500000
     0.083333336         0.166666672         0.937500000
     0.083333336         0.416666687         0.187500000
     0.083333336         0.416666687         0.437500000
     0.083333336         0.416666687         0.687500000
     0.083333336         0.416666687         0.937500000
     0.083333336         0.666666687         0.187500000
     0.083333336         0.666666687         0.437500000
     0.083333336         0.666666687         0.687500000
     0.083333336         0.666666687         0.937500000
     0.083333336         0.916666687         0.187500000
     0.083333336         0.916666687         0.437500000
     0.083333336         0.916666687         0.687500000
     0.083333336         0.916666687         0.937500000
     0.333333343         0.166666672         0.187500000
     0.333333343         0.166666672         0.437500000
     0.333333343         0.166666672         0.687500000
     0.333333343         0.166666672         0.937500000
     0.333333343         0.416666687         0.187500000
     0.333333343         0.416666687         0.437500000
     0.333333343         0.416666687         0.687500000
     0.333333343         0.416666687         0.937500000
     0.333333343         0.666666687         0.187500000
     0.333333343         0.666666687         0.437500000
     0.333333343         0.666666687         0.687500000
     0.333333343         0.666666687         0.937500000
     0.333333343         0.916666687         0.187500000
     0.333333343         0.916666687         0.437500000
     0.333333343         0.916666687         0.687500000
     0.333333343         0.916666687         0.937500000
     0.583333313         0.166666672         0.187500000
     0.583333313         0.166666672         0.437500000
     0.583333313         0.166666672         0.687500000
     0.583333313         0.166666672         0.937500000
     0.583333313         0.416666687         0.187500000
     0.583333313         0.416666687         0.437500000
     0.583333313         0.416666687         0.687500000
     0.583333313         0.416666687         0.937500000
     0.583333313         0.666666687         0.187500000
     0.583333313         0.666666687         0.437500000
     0.583333313         0.666666687         0.687500000
     0.583333313         0.666666687         0.937500000
     0.583333313         0.916666687         0.187500000
     0.583333313         0.916666687         0.437500000
     0.583333313         0.916666687         0.687500000
     0.583333313         0.916666687         0.937500000
     0.833333313         0.166666672         0.187500000
     0.833333313         0.166666672         0.437500000
     0.833333313         0.166666672         0.687500000
     0.833333313         0.166666672         0.937500000
     0.833333313         0.416666687         0.187500000
     0.833333313         0.416666687         0.437500000
     0.833333313         0.416666687         0.687500000
     0.833333313         0.416666687         0.937500000
     0.833333313         0.666666687         0.187500000
     0.833333313         0.666666687         0.437500000
     0.833333313         0.666666687         0.687500000
     0.833333313         0.666666687         0.937500000
     0.833333313         0.916666687         0.187500000
     0.833333313         0.916666687         0.437500000
     0.833333313         0.916666687         0.687500000
     0.833333313         0.916666687         0.937500000
     0.208333343         0.041666668         0.187500000
     0.208333343         0.041666668         0.437500000
     0.208333343         0.041666668         0.687500000
     0.208333343         0.041666668         0.937500000
     0.208333343         0.291666657         0.187500000
     0.208333343         0.291666657         0.437500000
     0.208333343         0.291666657         0.687500000
     0.208333343         0.291666657         0.937500000
     0.208333343         0.541666687         0.187500000
     0.208333343         0.541666687         0.437500000
     0.208333343         0.541666687         0.687500000
     0.208333343         0.541666687         0.937500000
     0.208333343         0.791666687         0.187500000
     0.208333343         0.791666687         0.437500000
     0.208333343         0.791666687         0.687500000
     0.208333343         0.791666687         0.937500000
     0.458333343         0.041666668         0.187500000
     0.458333343         0.041666668         0.437500000
     0.458333343         0.041666668         0.687500000
     0.458333343         0.041666668         0.937500000
     0.458333343         0.291666657         0.187500000
     0.458333343         0.291666657         0.437500000
     0.458333343         0.291666657         0.687500000
     0.458333343         0.291666657         0.937500000
     0.458333343         0.541666687         0.187500000
     0.458333343         0.541666687         0.437500000
     0.458333343         0.541666687         0.687500000
     0.458333343         0.541666687         0.937500000
     0.458333343         0.791666687         0.187500000
     0.458333343         0.791666687         0.437500000
     0.458333343         0.791666687         0.687500000
     0.458333343         0.791666687         0.937500000
     0.708333373         0.041666668         0.187500000
     0.708333373         0.041666668         0.437500000
     0.708333373         0.041666668         0.687500000
     0.708333373         0.041666668         0.937500000
     0.708333373         0.291666657         0.187500000
     0.708333373         0.291666657         0.437500000
     0.708333373         0.291666657         0.687500000
     0.708333373         0.291666657         0.937500000
     0.708333373         0.541666687         0.187500000
     0.708333373         0.541666687         0.437500000
     0.708333373         0.541666687         0.687500000
     0.708333373         0.541666687         0.937500000
     0.708333373         0.791666687         0.187500000
     0.708333373         0.791666687         0.437500000
     0.708333373         0.791666687         0.687500000
     0.708333373         0.791666687         0.937500000
     0.958333373         0.041666668         0.187500000
     0.958333373         0.041666668         0.437500000
     0.958333373         0.041666668         0.687500000
     0.958333373         0.041666668         0.937500000
     0.958333373         0.291666657         0.187500000
     0.958333373         0.291666657         0.437500000
     0.958333373         0.291666657         0.687500000
     0.958333373         0.291666657         0.937500000
     0.958333373         0.541666687         0.187500000
     0.958333373         0.541666687         0.437500000
     0.958333373         0.541666687         0.687500000
     0.958333373         0.541666687         0.937500000
     0.958333373         0.791666687         0.187500000
     0.958333373         0.791666687         0.437500000
     0.958333373         0.791666687         0.687500000
     0.958333373         0.791666687         0.937500000
     0.208333343         0.166666672         0.187500000
     0.208333343         0.166666672         0.437500000
     0.208333343         0.166666672         0.687500000
     0.208333343         0.166666672         0.937500000
     0.208333343         0.416666687         0.187500000
     0.208333343         0.416666687         0.437500000
     0.208333343         0.416666687         0.687500000
     0.208333343         0.416666687         0.937500000
     0.208333343         0.666666687         0.187500000
     0.208333343         0.666666687         0.437500000
     0.208333343         0.666666687         0.687500000
     0.208333343         0.666666687         0.937500000
     0.208333343         0.916666687         0.187500000
     0.208333343         0.916666687         0.437500000
     0.208333343         0.916666687         0.687500000
     0.208333343         0.916666687         0.937500000
     0.458333343         0.166666672         0.187500000
     0.458333343         0.166666672         0.437500000
     0.458333343         0.166666672         0.687500000
     0.458333343         0.166666672         0.937500000
     0.458333343         0.416666687         0.187500000
     0.458333343         0.416666687         0.437500000
     0.458333343         0.416666687         0.687500000
     0.458333343         0.416666687         0.937500000
     0.458333343         0.666666687         0.187500000
     0.458333343         0.666666687         0.437500000
     0.458333343         0.666666687         0.687500000
     0.458333343         0.666666687         0.937500000
     0.458333343         0.916666687         0.187500000
     0.458333343         0.916666687         0.437500000
     0.458333343         0.916666687         0.687500000
     0.458333343         0.916666687         0.937500000
     0.708333373         0.166666672         0.187500000
     0.708333373         0.166666672         0.437500000
     0.708333373         0.166666672         0.687500000
     0.708333373         0.166666672         0.937500000
     0.708333373         0.416666687         0.187500000
     0.708333373         0.416666687         0.437500000
     0.708333373         0.416666687         0.687500000
     0.708333373         0.416666687         0.937500000
     0.708333373         0.666666687         0.187500000
     0.708333373         0.666666687         0.437500000
     0.708333373         0.666666687         0.687500000
     0.708333373         0.666666687         0.937500000
     0.708333373         0.916666687         0.187500000
     0.708333373         0.916666687         0.437500000
     0.708333373         0.916666687         0.687500000
     0.708333373         0.916666687         0.937500000
     0.958333373         0.166666672         0.187500000
     0.958333373         0.166666672         0.437500000
     0.958333373         0.166666672         0.687500000
     0.958333373         0.166666672         0.937500000
     0.958333373         0.416666687         0.187500000
     0.958333373         0.416666687         0.437500000
     0.958333373         0.416666687         0.687500000
     0.958333373         0.416666687         0.937500000
     0.958333373         0.666666687         0.187500000
     0.958333373         0.666666687         0.437500000
     0.958333373         0.666666687         0.687500000
     0.958333373         0.666666687         0.937500000
     0.958333373         0.916666687         0.187500000
     0.958333373         0.916666687         0.437500000
     0.958333373         0.916666687         0.687500000
     0.958333373         0.916666687         0.937500000
